
Log started (V11.0.0) Sat May 17 03:46:21 2008

Tried aggregator 1 time.
Reduced MIP has 510 rows, 5001 columns, and 10010 nonzeros.
Presolve time =    0.03 sec.
Clique table members: 500.
MIP emphasis: balance optimality and feasibility.
MIP search method: dynamic search.
Parallel mode: none, using 1 thread.
Root relaxation solution time =    0.13 sec.

        Nodes                                         Cuts/
   Node  Left     Objective  IInf  Best Integer     Best Node    ItCnt     Gap

*     0+    0                        55062.0000     5071.1829      570   90.79%
*     0+    0                         5092.0000     5071.1829      570    0.41%
      0     0     5072.0000    18     5092.0000      Fract: 8      616    0.39%
*     0+    0                         5089.0000     5072.0000      616    0.33%
      0     0     5072.0000    21     5089.0000     Covers: 1      652    0.33%
      0     0     5072.0000    19     5089.0000     Covers: 1      664    0.33%
*     0+    0                         5086.0000     5072.0000      664    0.28%
*     0+    0                         5083.0000     5072.0000      664    0.22%
      0     2     5072.0000    19     5083.0000     5072.0000      664    0.22%
    100    99     5073.0000    20     5083.0000     5072.0000     3263    0.22%
    200   178     5074.0572    19     5083.0000     5072.0000     7656    0.22%
    300   264     5075.0000    14     5083.0000     5072.0000    13958    0.22%
    400   334     5076.0000    15     5083.0000     5072.0000    24934    0.22%
*   500+  387                         5080.0000     5072.0000    30389    0.16%
    500   389     5072.0000    18     5080.0000     5072.0000    30389    0.16%
*   600+  482                         5079.0000     5072.0000    33052    0.14%
*   600+  482                         5078.0000     5072.0000    33052    0.12%
    600   483     5072.0471    20     5078.0000     5072.0000    33052    0.12%
    700   562     5074.0000    19     5078.0000     5072.0000    38840    0.12%
*   711+  378                         5077.0000     5072.0000    40808    0.10%
*   711+  252                         5076.0000     5072.0000    40808    0.08%
*   711+  168                         5075.0000     5072.0000    40808    0.06%
    800   171    infeasible           5075.0000     5072.0000    43036    0.06%
*   811+  107                         5074.0000     5072.0000    43776    0.04%
*   811+   50                         5073.0000     5072.0000    43776    0.02%
    900    69     5072.0000    18     5073.0000     5072.0000    48821    0.02%
   1000   139     5072.0000    21     5073.0000     5072.0000    56405    0.02%
Elapsed time =  27.91 sec. (tree size =  0.21 MB, solutions = 13)
   1100   235     5072.0000    20     5073.0000     5072.0000    60228    0.02%
   1200   311     5072.0000    19     5073.0000     5072.0000    62629    0.02%
   1300   397     5072.0000    22     5073.0000     5072.0000    65015    0.02%
   1400   484     5072.0000    19     5073.0000     5072.0000    67579    0.02%
   1500   570     5072.0000    22     5073.0000     5072.0000    72788    0.02%
   1600   646    infeasible           5073.0000     5072.0000    75070    0.02%
   1700   728     5072.0000    18     5073.0000     5072.0000    76383    0.02%
   1800   804     5072.0000    16     5073.0000     5072.0000    80192    0.02%
   1900   868     5072.0000    22     5073.0000     5072.0000    85173    0.02%
   2000   939     5072.0000    21     5073.0000     5072.0000    90364    0.02%
Elapsed time =  43.58 sec. (tree size =  1.44 MB, solutions = 13)
   2100  1025     5072.0000    22     5073.0000     5072.0000    92479    0.02%
   2200  1076     5072.0000    16     5073.0000     5072.0000    94101    0.02%
   2300  1160     5072.0000    18     5073.0000     5072.0000    95746    0.02%
   2400  1252    infeasible           5073.0000     5072.0000    97691    0.02%
   2500  1334     5072.0000    18     5073.0000     5072.0000    98904    0.02%
   2600  1401    infeasible           5073.0000     5072.0000   100725    0.02%
   2700  1491     5072.0000    16     5073.0000     5072.0000   102887    0.02%
   2800  1518     5072.0000    16     5073.0000     5072.0000   105661    0.02%
   2900  1568     5072.0000    18     5073.0000     5072.0000   107425    0.02%
   3000  1640     5072.0000    16     5073.0000     5072.0000   109811    0.02%
Elapsed time =  50.33 sec. (tree size =  2.47 MB, solutions = 13)
   3100  1732     5072.0000    16     5073.0000     5072.0000   112037    0.02%
   3200  1816     5072.0000    20     5073.0000     5072.0000   114347    0.02%
   3300  1888     5072.0000    18     5073.0000     5072.0000   115778    0.02%
   3400  1976     5072.0000    21     5073.0000     5072.0000   117407    0.02%
   3500  2060     5072.0000    22     5073.0000     5072.0000   119149    0.02%
   3600  2108     5072.0000    16     5073.0000     5072.0000   121351    0.02%
   3700  2178     5072.0000    16     5073.0000     5072.0000   123237    0.02%
   3800  2256     5072.0000    14     5073.0000     5072.0000   125115    0.02%
   3900  2342     5072.0000    20     5073.0000     5072.0000   127359    0.02%
   4000  2416     5072.0000    14     5073.0000     5072.0000   129176    0.02%
Elapsed time =  57.45 sec. (tree size =  3.66 MB, solutions = 13)
*  4011+    1                         5072.0000     5072.0000   129254    0.00%

Mixed integer rounding cuts applied:  2
Gomory fractional cuts applied:  1

Solution pool: 14 solutions saved.

MIP - Integer optimal solution:  Objective = 5.0720000000e+003
Solution time =   57.55 sec.  Iterations = 129254  Nodes = 4011


Incumbent solution
Variable Name           Solution Value
Cmax                       5072.000000
X_1_3                         1.000000
X_2_4                         1.000000
X_3_1                         1.000000
X_4_1                         1.000000
X_5_9                         1.000000
X_6_7                         1.000000
X_7_7                         1.000000
X_8_8                         1.000000
X_9_9                         1.000000
X_10_6                        1.000000
X_11_6                        1.000000
X_12_4                        1.000000
X_13_7                        1.000000
X_14_5                        1.000000
X_15_8                        1.000000
X_16_6                        1.000000
X_17_8                        1.000000
X_18_2                        1.000000
X_19_2                        1.000000
X_20_2                        1.000000
X_21_2                        1.000000
X_22_1                        1.000000
X_23_8                        1.000000
X_24_4                        1.000000
X_25_4                        1.000000
X_26_9                        1.000000
X_27_1                        1.000000
X_28_5                        1.000000
X_29_2                        1.000000
X_30_9                        1.000000
X_31_2                        1.000000
X_32_1                        1.000000
X_33_8                        1.000000
X_34_7                        1.000000
X_35_8                        1.000000
X_36_7                        1.000000
X_37_3                        1.000000
X_38_5                        1.000000
X_39_6                        1.000000
X_40_6                        1.000000
X_41_10                       1.000000
X_42_5                        1.000000
X_43_10                       1.000000
X_44_6                        1.000000
X_45_1                        1.000000
X_46_7                        1.000000
X_47_4                        1.000000
X_48_7                        1.000000
X_49_4                        1.000000
X_50_5                        1.000000
X_51_6                        1.000000
X_52_7                        1.000000
X_53_10                       1.000000
X_54_9                        1.000000
X_55_10                       1.000000
X_56_4                        1.000000
X_57_8                        1.000000
X_58_5                        1.000000
X_59_8                        1.000000
X_60_1                        1.000000
X_61_5                        1.000000
X_62_2                        1.000000
X_63_5                        1.000000
X_64_10                       1.000000
X_65_7                        1.000000
X_66_10                       1.000000
X_67_3                        1.000000
X_68_6                        1.000000
X_69_4                        1.000000
X_70_9                        1.000000
X_71_3                        1.000000
X_72_2                        1.000000
X_73_3                        1.000000
X_74_9                        1.000000
X_75_3                        1.000000
X_76_5                        1.000000
X_77_6                        1.000000
X_78_9                        1.000000
X_79_3                        1.000000
X_80_1                        1.000000
X_81_10                       1.000000
X_82_2                        1.000000
X_83_5                        1.000000
X_84_7                        1.000000
X_85_2                        1.000000
X_86_10                       1.000000
X_87_5                        1.000000
X_88_2                        1.000000
X_89_3                        1.000000
X_90_7                        1.000000
X_91_5                        1.000000
X_92_6                        1.000000
X_93_5                        1.000000
X_94_10                       1.000000
X_95_2                        1.000000
X_96_9                        1.000000
X_97_8                        1.000000
X_98_1                        1.000000
X_99_9                        1.000000
X_100_6                       1.000000
X_101_9                       1.000000
X_102_4                       1.000000
X_103_8                       1.000000
X_104_3                       1.000000
X_105_9                       1.000000
X_106_9                       1.000000
X_107_9                       1.000000
X_108_3                       1.000000
X_109_10                      1.000000
X_110_3                       1.000000
X_111_4                       1.000000
X_112_7                       1.000000
X_113_5                       1.000000
X_114_2                       1.000000
X_115_3                       1.000000
X_116_9                       1.000000
X_117_4                       1.000000
X_118_7                       1.000000
X_119_3                       1.000000
X_120_1                       1.000000
X_121_3                       1.000000
X_122_3                       1.000000
X_123_8                       1.000000
X_124_3                       1.000000
X_125_3                       1.000000
X_126_3                       1.000000
X_127_10                      1.000000
X_128_2                       1.000000
X_129_8                       1.000000
X_130_5                       1.000000
X_131_4                       1.000000
X_132_9                       1.000000
X_133_2                       1.000000
X_134_6                       1.000000
X_135_5                       1.000000
X_136_10                      1.000000
X_137_8                       1.000000
X_138_2                       1.000000
X_139_1                       1.000000
X_140_3                       1.000000
X_141_8                       1.000000
X_142_9                       1.000000
X_143_7                       1.000000
X_144_1                       1.000000
X_145_5                       1.000000
X_146_6                       1.000000
X_147_7                       1.000000
X_148_7                       1.000000
X_149_9                       1.000000
X_150_10                      1.000000
X_151_10                      1.000000
X_152_8                       1.000000
X_153_2                       1.000000
X_154_5                       1.000000
X_155_10                      1.000000
X_156_2                       1.000000
X_157_3                       1.000000
X_158_8                       1.000000
X_159_8                       1.000000
X_160_4                       1.000000
X_161_10                      1.000000
X_162_7                       1.000000
X_163_6                       1.000000
X_164_3                       1.000000
X_165_4                       1.000000
X_166_3                       1.000000
X_167_4                       1.000000
X_168_7                       1.000000
X_169_4                       1.000000
X_170_8                       1.000000
X_171_10                      1.000000
X_172_1                       1.000000
X_173_7                       1.000000
X_174_8                       1.000000
X_175_2                       1.000000
X_176_7                       1.000000
X_177_9                       1.000000
X_178_1                       1.000000
X_179_7                       1.000000
X_180_3                       1.000000
X_181_1                       1.000000
X_182_10                      1.000000
X_183_3                       1.000000
X_184_8                       1.000000
X_185_10                      1.000000
X_186_9                       1.000000
X_187_10                      1.000000
X_188_9                       1.000000
X_189_3                       1.000000
X_190_10                      1.000000
X_191_3                       1.000000
X_192_6                       1.000000
X_193_8                       1.000000
X_194_10                      1.000000
X_195_3                       1.000000
X_196_6                       1.000000
X_197_2                       1.000000
X_198_7                       1.000000
X_199_4                       1.000000
X_200_4                       1.000000
X_201_1                       1.000000
X_202_1                       1.000000
X_203_8                       1.000000
X_204_6                       1.000000
X_205_6                       1.000000
X_206_9                       1.000000
X_207_5                       1.000000
X_208_7                       1.000000
X_209_1                       1.000000
X_210_8                       1.000000
X_211_10                      1.000000
X_212_5                       1.000000
X_213_9                       1.000000
X_214_8                       1.000000
X_215_7                       1.000000
X_216_10                      1.000000
X_217_6                       1.000000
X_218_3                       1.000000
X_219_6                       1.000000
X_220_8                       1.000000
X_221_10                      1.000000
X_222_6                       1.000000
X_223_5                       1.000000
X_224_1                       1.000000
X_225_7                       1.000000
X_226_6                       1.000000
X_227_5                       1.000000
X_228_9                       1.000000
X_229_2                       1.000000
X_230_10                      1.000000
X_231_6                       1.000000
X_232_6                       1.000000
X_233_10                      1.000000
X_234_9                       1.000000
X_235_2                       1.000000
X_236_7                       1.000000
X_237_4                       1.000000
X_238_1                       1.000000
X_239_6                       1.000000
X_240_9                       1.000000
X_241_1                       1.000000
X_242_1                       1.000000
X_243_3                       1.000000
X_244_5                       1.000000
X_245_10                      1.000000
X_246_2                       1.000000
X_247_8                       1.000000
X_248_5                       1.000000
X_249_5                       1.000000
X_250_6                       1.000000
X_251_3                       1.000000
X_252_9                       1.000000
X_253_2                       1.000000
X_254_1                       1.000000
X_255_8                       1.000000
X_256_3                       1.000000
X_257_5                       1.000000
X_258_5                       1.000000
X_259_10                      1.000000
X_260_7                       1.000000
X_261_4                       1.000000
X_262_4                       1.000000
X_263_8                       1.000000
X_264_9                       1.000000
X_265_1                       1.000000
X_266_3                       1.000000
X_267_7                       1.000000
X_268_5                       1.000000
X_269_10                      1.000000
X_270_9                       1.000000
X_271_3                       1.000000
X_272_7                       1.000000
X_273_8                       1.000000
X_274_10                      1.000000
X_275_2                       1.000000
X_276_5                       1.000000
X_277_1                       1.000000
X_278_8                       1.000000
X_279_7                       1.000000
X_280_7                       1.000000
X_281_3                       1.000000
X_282_1                       1.000000
X_283_4                       1.000000
X_284_6                       1.000000
X_285_8                       1.000000
X_286_4                       1.000000
X_287_5                       1.000000
X_288_9                       1.000000
X_289_6                       1.000000
X_290_4                       1.000000
X_291_10                      1.000000
X_292_4                       1.000000
X_293_8                       1.000000
X_294_1                       1.000000
X_295_10                      1.000000
X_296_3                       1.000000
X_297_9                       1.000000
X_298_1                       1.000000
X_299_7                       1.000000
X_300_9                       1.000000
X_301_1                       1.000000
X_302_8                       1.000000
X_303_9                       1.000000
X_304_10                      1.000000
X_305_1                       1.000000
X_306_10                      1.000000
X_307_4                       1.000000
X_308_7                       1.000000
X_309_3                       1.000000
X_310_9                       1.000000
X_311_4                       1.000000
X_312_2                       1.000000
X_313_2                       1.000000
X_314_7                       1.000000
X_315_4                       1.000000
X_316_9                       1.000000
X_317_7                       1.000000
X_318_4                       1.000000
X_319_9                       1.000000
X_320_4                       1.000000
X_321_6                       1.000000
X_322_6                       1.000000
X_323_5                       1.000000
X_324_6                       1.000000
X_325_3                       1.000000
X_326_3                       1.000000
X_327_5                       1.000000
X_328_4                       1.000000
X_329_7                       1.000000
X_330_4                       1.000000
X_331_6                       1.000000
X_332_2                       1.000000
X_333_1                       1.000000
X_334_3                       1.000000
X_335_6                       1.000000
X_336_7                       1.000000
X_337_8                       1.000000
X_338_9                       1.000000
X_339_8                       1.000000
X_340_7                       1.000000
X_341_9                       1.000000
X_342_4                       1.000000
X_343_1                       1.000000
X_344_5                       1.000000
X_345_1                       1.000000
X_346_5                       1.000000
X_347_5                       1.000000
X_348_6                       1.000000
X_349_2                       1.000000
X_350_4                       1.000000
X_351_1                       1.000000
X_352_2                       1.000000
X_353_3                       1.000000
X_354_10                      1.000000
X_355_4                       1.000000
X_356_2                       1.000000
X_357_3                       1.000000
X_358_4                       1.000000
X_359_8                       1.000000
X_360_9                       1.000000
X_361_1                       1.000000
X_362_2                       1.000000
X_363_5                       1.000000
X_364_6                       1.000000
X_365_1                       1.000000
X_366_2                       1.000000
X_367_10                      1.000000
X_368_3                       1.000000
X_369_6                       1.000000
X_370_4                       1.000000
X_371_1                       1.000000
X_372_1                       1.000000
X_373_4                       1.000000
X_374_8                       1.000000
X_375_4                       1.000000
X_376_10                      1.000000
X_377_1                       1.000000
X_378_4                       1.000000
X_379_2                       1.000000
X_380_1                       1.000000
X_381_7                       1.000000
X_382_4                       1.000000
X_383_7                       1.000000
X_384_9                       1.000000
X_385_6                       1.000000
X_386_6                       1.000000
X_387_2                       1.000000
X_388_3                       1.000000
X_389_5                       1.000000
X_390_1                       1.000000
X_391_3                       1.000000
X_392_4                       1.000000
X_393_7                       1.000000
X_394_2                       1.000000
X_395_9                       1.000000
X_396_2                       1.000000
X_397_7                       1.000000
X_398_4                       1.000000
X_399_2                       1.000000
X_400_6                       1.000000
X_401_9                       1.000000
X_402_4                       1.000000
X_403_10                      1.000000
X_404_5                       1.000000
X_405_8                       1.000000
X_406_9                       1.000000
X_407_4                       1.000000
X_408_2                       1.000000
X_409_8                       1.000000
X_410_8                       1.000000
X_411_4                       1.000000
X_412_8                       1.000000
X_413_6                       1.000000
X_414_5                       1.000000
X_415_1                       1.000000
X_416_5                       1.000000
X_417_1                       1.000000
X_418_4                       1.000000
X_419_4                       1.000000
X_420_5                       1.000000
X_421_5                       1.000000
X_422_7                       1.000000
X_423_10                      1.000000
X_424_8                       1.000000
X_425_6                       1.000000
X_426_5                       1.000000
X_427_6                       1.000000
X_428_6                       1.000000
X_429_7                       1.000000
X_430_3                       1.000000
X_431_10                      1.000000
X_432_9                       1.000000
X_433_10                      1.000000
X_434_10                      1.000000
X_435_2                       1.000000
X_436_4                       1.000000
X_437_8                       1.000000
X_438_6                       1.000000
X_439_1                       1.000000
X_440_6                       1.000000
X_441_10                      1.000000
X_442_1                       1.000000
X_443_6                       1.000000
X_444_9                       1.000000
X_445_8                       1.000000
X_446_5                       1.000000
X_447_9                       1.000000
X_448_8                       1.000000
X_449_2                       1.000000
X_450_1                       1.000000
X_451_2                       1.000000
X_452_5                       1.000000
X_453_7                       1.000000
X_454_6                       1.000000
X_455_3                       1.000000
X_456_8                       1.000000
X_457_3                       1.000000
X_458_8                       1.000000
X_459_9                       1.000000
X_460_7                       1.000000
X_461_5                       1.000000
X_462_6                       1.000000
X_463_8                       1.000000
X_464_2                       1.000000
X_465_10                      1.000000
X_466_5                       1.000000
X_467_2                       1.000000
X_468_5                       1.000000
X_469_7                       1.000000
X_470_6                       1.000000
X_471_1                       1.000000
X_472_9                       1.000000
X_473_2                       1.000000
X_474_10                      1.000000
X_475_10                      1.000000
X_476_9                       1.000000
X_477_5                       1.000000
X_478_7                       1.000000
X_479_1                       1.000000
X_480_2                       1.000000
X_481_10                      1.000000
X_482_5                       1.000000
X_483_1                       1.000000
X_484_7                       1.000000
X_485_9                       1.000000
X_486_2                       1.000000
X_487_10                      1.000000
X_488_3                       1.000000
X_489_2                       1.000000
X_490_7                       1.000000
X_491_2                       1.000000
X_492_8                       1.000000
X_493_3                       1.000000
X_494_6                       1.000000
X_495_8                       1.000000
X_496_10                      1.000000
X_497_1                       1.000000
X_498_2                       1.000000
X_499_4                       1.000000
X_500_3                       1.000000
All other variables in the range 1-5001 are 0.
